50

100 8 268
97 3 278
95 15 219
95 27 162
95 28 206
95 8 262
94 22 193
93 24 179
93 21 185
91 24 245
90 16 194
89 22 205
87 17 198
83 19 141
82 5 152
79 3 227
79 12 223
78 8 212
77 5 172
77 14 196
74 16 292
71 18 223
69 8 259
68 19 144
68 18 199
65 6 263
65 12 299
64 14 159
61 9 151
58 11 254
55 2 233
55 16 262
54 12 238
53 8 289
53 4 145
51 11 181
51 14 210
49 9 277
46 6 284
44 10 221
42 2 186
41 12 297
39 5 147
38 10 140
37 3 272
37 10 296
37 8 235
35 1 160
33 5 216
31 4 249
